<instance format="XCSP3" type="CSP">
  <variables>
    <var id="x0"> 4 5 8 </var>
    <var id="x1"> 4 8 9 14 </var>
    <var id="x2"> 4 5 9 14 </var>
    <var id="x3"> 4 10 12 14 </var>
    <var id="x4"> 9 10 14 </var>
    <var id="x5"> 4 8..10 14 </var>
    <var id="x6"> 4 5 9 10 14 </var>
    <var id="x7"> 5 8 13 </var>
    <var id="x8"> 2 5 10 11 </var>
    <var id="x9"> 2 8 11 14 </var>
    <var id="x10"> 10 13 14 </var>
    <var id="x11"> 2 8 10 14 </var>
    <var id="x12"> 10 11 13 </var>
    <var id="x13"> 5 11 </var>
    <var id="x14"> 4 5 13 </var>
    <var id="x15"> 2 4 5 10 </var>
    <var id="x16"> 2 4 7 10 </var>
    <var id="x17"> 5 13 </var>
    <var id="x18"> 5 7 13 14 </var>
    <var id="x19"> 7 10 13 </var>
    <var id="x20"> 2 4 10 14 </var>
    <var id="x21"> 0 3..5 </var>
    <var id="x22"> 0 4 5 11 </var>
    <var id="x23"> 3 5 7 11 </var>
    <var id="x24"> 3 9 </var>
    <var id="x25"> 3 7 9 11 </var>
    <var id="x26"> 0 3 9 11 </var>
    <var id="x27"> 0 5 9 11 </var>
    <var id="x28"> 2 4 7 9 </var>
    <var id="x29"> 0 2 4 9 13 </var>
    <var id="x30"> 2 4 7 13 </var>
    <var id="x31"> 4 7 13 </var>
    <var id="x32"> 2 6 9 </var>
    <var id="x33"> 7 9 13 </var>
    <var id="x34"> 2 4 9 </var>
    <var id="x35"> 3 6 8 13 </var>
    <var id="x36"> 2 13 14 </var>
    <var id="x37"> 2 6..8 </var>
    <var id="x38"> 8 13 </var>
    <var id="x39"> 7 13 14 </var>
    <var id="x40"> 3 7 11 13 </var>
    <var id="x41"> 3 11 13 14 </var>
    <var id="x42"> 2 14 </var>
    <var id="x43"> 11 </var>
    <var id="x44"> 7 9 11 14 </var>
    <var id="x45"> 1 7 11 13 </var>
    <var id="x46"> 7 12 </var>
    <var id="x47"> 7 11 13 14 </var>
    <var id="x48"> 9 11 14 </var>
    <var id="x49"> 1 9 11 12 </var>
    <var id="x50"> 0 2 4 10 </var>
    <var id="x51"> 2 4 7 9 </var>
    <var id="x52"> 0 2 4 9 </var>
    <var id="x53"> 2 4 7 10 </var>
    <var id="x54"> 3 7 </var>
    <var id="x55"> 2 3 9 10 </var>
    <var id="x56"> 3 7 9 10 </var>
    <var id="x57"> 2 8 9 11 </var>
    <var id="x58"> 1 2 11 </var>
    <var id="x59"> 0 1 8 9 </var>
    <var id="x60"> 1 9 11 </var>
    <var id="x61"> 0 9 11 </var>
    <var id="x62"> 2 8 9 11 </var>
    <var id="x63"> 0 1 6 9 11 </var>
    <var id="x64"> 0 5 6 8 </var>
    <var id="x65"> 2 5 </var>
    <var id="x66"> 10 14 </var>
    <var id="x67"> 5 6 14 </var>
    <var id="x68"> 0 10 14 </var>
    <var id="x69"> 0 5 6 </var>
    <var id="x70"> 0 2 5 10 14 </var>
    <var id="x71"> 4 5 9 </var>
    <var id="x72"> 1 5 9 12 </var>
    <var id="x73"> 1 4 10 12 </var>
    <var id="x74"> 5 11 </var>
    <var id="x75"> 4 9..11 </var>
    <var id="x76"> 1 5 9 11 12 </var>
    <var id="x77"> 4 5 9 10 </var>
    <var id="x78"> 0 4 5 10 </var>
    <var id="x79"> 1 4 5 13 </var>
    <var id="x80"> 4 10 </var>
    <var id="x81"> 0 1 5 13 </var>
    <var id="x82"> 10 14 </var>
    <var id="x83"> 0 10 13 14 </var>
    <var id="x84"> 0 1 5 </var>
    <var id="x85"> 4 11 </var>
    <var id="x86"> 4 5 13 </var>
    <var id="x87"> 5 12 13 </var>
    <var id="x88"> 3 5 11 13 </var>
    <var id="x89"> 3 10 </var>
    <var id="x90"> 3 10 11 13 </var>
    <var id="x91"> 4 5 10 </var>
    <var id="x92"> 2 4 6 </var>
    <var id="x93"> 2 4 9 14 </var>
    <var id="x94"> 2 4 </var>
    <var id="x95"> 2 4 6 8 </var>
    <var id="x96"> 8 9 </var>
    <var id="x97"> 2..4 8 9 14 </var>
    <var id="x98"> 2 4 9 14 </var>
    <var id="x99"> 0 3 6 13 </var>
    <var id="x100"> 1 11 13 </var>
    <var id="x101"> 6 </var>
    <var id="x102"> 1 13 </var>
    <var id="x103"> 3 6 9 </var>
    <var id="x104"> 3 9 11 </var>
    <var id="x105"> 0 9 </var>
  </variables>
  <constraints>
    <group>
      <allDifferent> %... </allDifferent>
      <args> x0 x1 x2 x3 x4 x5 x6 </args>
      <args> x7 x8 x9 x10 x11 x12 x13 </args>
      <args> x14 x15 x16 x17 x18 x19 x20 </args>
      <args> x21 x22 x23 x24 x25 x26 x27 </args>
      <args> x28 x29 x30 x31 x32 x33 x34 </args>
      <args> x35 x36 x37 x38 x39 x40 x41 x42 </args>
      <args> x43 x44 x45 x46 x47 x48 x49 </args>
      <args> x50 x51 x52 x53 x54 x55 x56 </args>
      <args> x57 x58 x59 x60 x61 x62 x63 </args>
      <args> x64 x65 x66 x67 x68 x69 x70 </args>
      <args> x71 x72 x73 x74 x75 x76 x77 </args>
      <args> x78 x79 x80 x81 x82 x83 x84 </args>
      <args> x85 x86 x87 x88 x89 x90 x91 </args>
      <args> x92 x93 x94 x95 x96 x97 x98 </args>
      <args> x99 x100 x101 x102 x103 x104 x105 </args>
      <args> x0 x7 x14 x21 x35 x64 x99 </args>
      <args> x8 x15 x22 x43 x50 x78 x92 </args>
      <args> x1 x9 x28 x44 x51 x57 x85 </args>
      <args> x2 x29 x36 x52 x71 x86 x93 </args>
      <args> x30 x45 x58 x65 x79 x94 x100 </args>
      <args> x16 x37 x46 x53 x80 x95 x101 </args>
      <args> x17 x38 x59 x72 x81 x87 x96 </args>
      <args> x3 x10 x31 x39 x66 x73 x102 </args>
      <args> x18 x23 x47 x54 x67 x74 x88 </args>
      <args> x11 x24 x32 x55 x82 x89 x103 </args>
      <args> x12 x19 x25 x33 x40 x56 x60 </args>
      <args> x4 x26 x41 x61 x68 x83 x90 </args>
      <args> x5 x20 x34 x48 x62 x75 x97 x104 </args>
      <args> x13 x27 x49 x63 x69 x76 x84 </args>
      <args> x6 x42 x70 x77 x91 x98 x105 </args>
    </group>
  </constraints>
</instance>

